RT is False
Default write of storage_offers_DA.csv just to have a file (but constraint should be inactive)
Reading model...
...model read.
creating competitive generators file...
...competitive generators recorded.
Loading data...
.. day-ahead data with real-time VRE data read.
Compiling instance...
...instance created.
Creating Offer Mitigation (model will solve as dispatch if TRUE)...
NOTE: storage offers will not be mitigated
...storage offer mitigation file created
Converting model to MPEC...
...converted
NOTE: initial MIP solve with only storage competitive to get feasible solution
Solving...

Welcome to IBM(R) ILOG(R) CPLEX(R) Interactive Optimizer 12.9.0.0
  with Simplex, Mixed Integer & Barrier Optimizers
5725-A06 5725-A29 5724-Y48 5724-Y49 5724-Y54 5724-Y55 5655-Y21
Copyright IBM Corp. 1988, 2019.  All Rights Reserved.

Type 'help' for a list of available commands.
Type 'help' followed by a command name for more
information on commands.

CPLEX> Logfile 'cplex.log' closed.
Logfile 'C:\Users\llavin\Desktop\test826\logs\tmpz3wg9nki.cplex.log' open.
CPLEX> New value for parallel optimization mode: -1
CPLEX> New value for emphasis for MIP optimization: 1
CPLEX> New value for mixed integer optimality gap tolerance: 0.01
CPLEX> New value for integrality tolerance: 1e-12
CPLEX> New value for deterministic time limit in ticks: 75000
CPLEX> Problem 'C:\Users\llavin\Desktop\test826\logs\tmpwsha6snz.pyomo.lp' read.
Read time = 0.25 sec. (13.92 ticks)
CPLEX> Problem name         : C:\Users\llavin\Desktop\test826\logs\tmpwsha6snz.pyomo.lp
Objective sense      : Maximize
Variables            :   53809  [Nneg: 1,  Box: 22004,  Free: 4464,
                                 Binary: 27340]
Objective nonzeros   :    8976
Linear constraints   :  123253  [Less: 41346,  Greater: 59096,  Equal: 22811]
  Nonzeros           :  293285
  RHS nonzeros       :   67487

Variables            : Min LB: -5000.000        Max UB: 1000000.       
Objective nonzeros   : Min   : 0.05833333       Max   : 833.6667       
Linear constraints   :
  Nonzeros           : Min   : 0.05833333       Max   : 1000000.       
  RHS nonzeros       : Min   : 0.05833333       Max   : 1000000.       
CPLEX> CPXPARAM_Parallel                                -1
CPXPARAM_Emphasis_MIP                            1
CPXPARAM_DetTimeLimit                            75000
CPXPARAM_MIP_Tolerances_MIPGap                   0.01
CPXPARAM_MIP_Tolerances_Integrality              9.9999999999999998e-13
Tried aggregator 4 times.
MIP Presolve eliminated 88624 rows and 18882 columns.
MIP Presolve added 3406 rows and 0 columns.
MIP Presolve modified 24866 coefficients.
Aggregator did 13043 substitutions.
Reduced MIP has 24992 rows, 21330 columns, and 71298 nonzeros.
Reduced MIP has 8431 binaries, 0 generals, 0 SOSs, and 0 indicators.
Presolve time = 0.33 sec. (194.08 ticks)
Probing fixed 435 vars, tightened 4126 bounds.
Probing time = 0.06 sec. (18.96 ticks)
Tried aggregator 2 times.
MIP Presolve eliminated 983 rows and 876 columns.
MIP Presolve modified 3035 coefficients.
Aggregator did 24 substitutions.
Reduced MIP has 23985 rows, 20430 columns, and 68376 nonzeros.
Reduced MIP has 7994 binaries, 0 generals, 0 SOSs, and 0 indicators.
Presolve time = 0.11 sec. (89.09 ticks)
Probing fixed 0 vars, tightened 269 bounds.
Probing time = 0.16 sec. (22.76 ticks)
Clique table members: 45241.
MIP emphasis: integer feasibility.
MIP search method: dynamic search.
Parallel mode: opportunistic, using up to 32 threads.
Root relaxation solution time = 0.34 sec. (535.83 ticks)

        Nodes                                         Cuts/
   Node  Left     Objective  IInf  Best Integer    Best Bound    ItCnt     Gap

      0     0        0.0000    58                      0.0000     4615         
*     0+    0                            0.0000        0.0000             0.00%
      0     0        cutoff              0.0000        0.0000     4615    0.00%
Elapsed time = 1.47 sec. (1148.02 ticks, tree = 0.01 MB, solutions = 1)

Root node processing (before b&c):
  Real time             =    1.49 sec. (1149.97 ticks)
Parallel b&c, 32 threads:
  Real time             =    0.00 sec. (0.00 ticks)
  Sync time (average)   =    0.00 sec.
  Wait time (average)   =    0.00 sec.
                          ------------
Total (root+branch&cut) =    1.49 sec. (1149.97 ticks)

Solution pool: 1 solution saved.

MIP - Integer optimal solution:  Objective =  0.0000000000e+00
Solution time =    1.49 sec.  Iterations = 4615  Nodes = 0
Deterministic time = 1150.12 ticks  (774.49 ticks/sec)

CPLEX> Incumbent solution written to file 'C:\Users\llavin\Desktop\test826\logs\tmp8qyc1c0d.cplex.sol'.
CPLEX> NOTE: no warmstart specified for MIP iteration, default behavior is true
NOTE: resolving with all competitive generators using storage-only solution to warmstart
Solving...

Welcome to IBM(R) ILOG(R) CPLEX(R) Interactive Optimizer 12.9.0.0
  with Simplex, Mixed Integer & Barrier Optimizers
5725-A06 5725-A29 5724-Y48 5724-Y49 5724-Y54 5724-Y55 5655-Y21
Copyright IBM Corp. 1988, 2019.  All Rights Reserved.

Type 'help' for a list of available commands.
Type 'help' followed by a command name for more
information on commands.

CPLEX> Logfile 'cplex.log' closed.
Logfile 'C:\Users\llavin\Desktop\test826\logs\tmp90ocdovk.cplex.log' open.
CPLEX> New value for parallel optimization mode: -1
CPLEX> New value for emphasis for MIP optimization: 1
CPLEX> New value for mixed integer optimality gap tolerance: 0.01
CPLEX> New value for integrality tolerance: 1e-12
CPLEX> New value for deterministic time limit in ticks: 75000
CPLEX> Problem 'C:\Users\llavin\Desktop\test826\logs\tmpbwvoyggo.pyomo.lp' read.
Read time = 0.23 sec. (13.94 ticks)
CPLEX> MIP start file 'C:\Users\llavin\Desktop\test826\logs\tmphb0l4ew5.cplex.mst' read.
CPLEX> Problem name         : C:\Users\llavin\Desktop\test826\logs\tmpbwvoyggo.pyomo.lp
Objective sense      : Maximize
Variables            :   54529  [Nneg: 1,  Box: 22724,  Free: 4464,
                                 Binary: 27340]
Objective nonzeros   :    9672
Linear constraints   :  123253  [Less: 41346,  Greater: 59096,  Equal: 22811]
  Nonzeros           :  293285
  RHS nonzeros       :   67487

Variables            : Min LB: -5000.000        Max UB: 1000000.       
Objective nonzeros   : Min   : 0.05833333       Max   : 787.5750       
Linear constraints   :
  Nonzeros           : Min   : 0.05833333       Max   : 1000000.       
  RHS nonzeros       : Min   : 0.05833333       Max   : 1000000.       
CPLEX> CPXPARAM_Parallel                                -1
CPXPARAM_Emphasis_MIP                            1
CPXPARAM_DetTimeLimit                            75000
CPXPARAM_MIP_Tolerances_MIPGap                   0.01
CPXPARAM_MIP_Tolerances_Integrality              9.9999999999999998e-13
Warning:  No solution found from 1 MIP starts.
Retaining values of one MIP start for possible repair.
Tried aggregator 4 times.
MIP Presolve eliminated 88624 rows and 19602 columns.
MIP Presolve added 3406 rows and 0 columns.
MIP Presolve modified 24866 coefficients.
Aggregator did 13043 substitutions.
Reduced MIP has 24992 rows, 21330 columns, and 71298 nonzeros.
Reduced MIP has 8431 binaries, 0 generals, 0 SOSs, and 0 indicators.
Presolve time = 0.33 sec. (194.49 ticks)
Probing fixed 435 vars, tightened 4126 bounds.
Probing time = 0.06 sec. (18.96 ticks)
Tried aggregator 2 times.
MIP Presolve eliminated 983 rows and 876 columns.
MIP Presolve modified 3035 coefficients.
Aggregator did 24 substitutions.
Reduced MIP has 23985 rows, 20430 columns, and 68376 nonzeros.
Reduced MIP has 7994 binaries, 0 generals, 0 SOSs, and 0 indicators.
Presolve time = 0.11 sec. (89.10 ticks)
Probing fixed 0 vars, tightened 269 bounds.
Probing time = 0.14 sec. (22.76 ticks)
Clique table members: 45241.
MIP emphasis: integer feasibility.
MIP search method: dynamic search.
Parallel mode: opportunistic, using up to 32 threads.
Root relaxation solution time = 0.41 sec. (608.49 ticks)

        Nodes                                         Cuts/
   Node  Left     Objective  IInf  Best Integer    Best Bound    ItCnt     Gap

      0     0    52866.9209   180                  52866.9209     5112         
      0     0    48756.9860    79                Flowcuts: 43     5186         
      0     0    48418.3683    79                    Cuts: 17     5201         
      0     0    48418.3683    76                    Cuts: 13     5207         
Repair heuristic found nothing.
      0    37    33060.6238    53                    Cuts: 13     5434         
Elapsed time = 3.88 sec. (1813.53 ticks, tree = 0.05 MB, solutions = 0)
    870   565    infeasible                        40766.3731     8780         
*   956+  591                            0.0000    40766.3731              --- 
   1484   523        cutoff              0.0000    37924.5455    18637     --- 
   2170   518        0.0000     4        0.0000    23761.6313    24792     --- 

Cover cuts applied:  6
Flow cuts applied:  54

Root node processing (before b&c):
  Real time             =    2.69 sec. (1791.63 ticks)
Parallel b&c, 32 threads:
  Real time             =    5.17 sec. (910.73 ticks)
  Sync time (average)   =    1.01 sec.
  Wait time (average)   =    0.00 sec.
                          ------------
Total (root+branch&cut) =    7.86 sec. (2702.35 ticks)

Solution pool: 11 solutions saved.

MIP - Integer optimal, tolerance (0.01/1e-06):  Objective =  4.4379175367e-07
Current MIP best bound =  4.4409589246e-07 (gap = 3.04139e-10, 0.00%)
Solution time =    7.88 sec.  Iterations = 30112  Nodes = 2265 (420)
Deterministic time = 2702.51 ticks  (343.18 ticks/sec)

CPLEX> Incumbent solution written to file 'C:\Users\llavin\Desktop\test826\logs\tmp1o_udnxp.cplex.sol'.
CPLEX> Exporting results... 
